
Welcome to IBM(R) ILOG(R) CPLEX(R) Interactive Optimizer 22.1.1.0
  with Simplex, Mixed Integer & Barrier Optimizers
5725-A06 5725-A29 5724-Y48 5724-Y49 5724-Y54 5724-Y55 5655-Y21
Copyright IBM Corp. 1988, 2022.  All Rights Reserved.

Type 'help' for a list of available commands.
Type 'help' followed by a command name for more
information on commands.

CPLEX> Selected objective sense:  MINIMIZE
Selected objective  name:  00000000
Selected RHS        name:  RHS1
Selected bound      name:  BOUND
Problem 'ee.mps' read.
Read time = 0.02 sec. (3.17 ticks)
CPLEX> New value for time limit in seconds: 7200
CPLEX> New value for parallel optimization mode: -1
CPLEX> New value for default parallel thread count: 40
CPLEX> New value for mixed integer optimality gap tolerance: 1e-13
CPLEX> Version identifier: 22.1.1.0 | 2022-11-28 | 9160aff4d
CPXPARAM_Threads                                 40
CPXPARAM_Parallel                                -1
CPXPARAM_TimeLimit                               7200
CPXPARAM_MIP_Tolerances_MIPGap                   1e-13
Found incumbent of value 0.000000 after 0.00 sec. (0.31 ticks)
Tried aggregator 2 times.
MIP Presolve eliminated 178 rows and 2745 columns.
MIP Presolve modified 6090 coefficients.
Aggregator did 713 substitutions.
Reduced MIP has 3636 rows, 7835 columns, and 28932 nonzeros.
Reduced MIP has 7835 binaries, 0 generals, 0 SOSs, and 0 indicators.
Presolve time = 0.07 sec. (68.91 ticks)
Probing time = 0.03 sec. (5.56 ticks)
Tried aggregator 1 time.
Detecting symmetries...
Reduced MIP has 3636 rows, 7835 columns, and 28932 nonzeros.
Reduced MIP has 7835 binaries, 0 generals, 0 SOSs, and 0 indicators.
Presolve time = 0.02 sec. (21.99 ticks)
Probing time = 0.02 sec. (5.37 ticks)
Clique table members: 18782.
MIP emphasis: balance optimality and feasibility.
MIP search method: dynamic search.
Parallel mode: opportunistic, using up to 40 threads.
Root relaxation solution time = 0.11 sec. (90.04 ticks)

        Nodes                                         Cuts/
   Node  Left     Objective  IInf  Best Integer    Best Bound    ItCnt     Gap

*     0+    0                            0.0000  -1.54000e+13              --- 
*     0+    0                      -4.59000e+12  -1.54000e+13           235.51%
*     0+    0                      -6.00000e+12  -1.54000e+13           156.67%
      0     0  -1.53900e+13    36  -6.00000e+12  -1.53900e+13     2244  156.50%
*     0+    0                      -1.53900e+13  -1.53900e+13             0.00%
      0     0  -1.53900e+13   103  -1.53900e+13      Cuts: 39     3409    0.00%
*     0+    0                      -1.53900e+13  -1.53900e+13             0.00%
      0     0  -1.53900e+13   170  -1.53900e+13      Cuts: 77     3748    0.00%
      0    33        cutoff        -1.53900e+13  -1.53900e+13     6935    0.00%
Elapsed time = 2.02 sec. (1025.86 ticks, tree = 0.02 MB, solutions = 6)
*    11+   15                      -1.53900e+13  -1.53900e+13             0.00%
    706    74        cutoff        -1.53900e+13  -1.53900e+13    27272    0.00%
   2027   117  -1.53900e+13    36  -1.53900e+13  -1.53900e+13    40219    0.00%
   3198   290  -1.53900e+13   123  -1.53900e+13  -1.53900e+13    97742    0.00%
   4246   397  -1.53900e+13   199  -1.53900e+13  -1.53900e+13   133805    0.00%
   5377   990  -1.53900e+13   144  -1.53900e+13  -1.53900e+13   391643    0.00%
   6384   908        cutoff        -1.53900e+13  -1.53900e+13   355887    0.00%
   7319   832  -1.53900e+13   160  -1.53900e+13  -1.53900e+13   316933    0.00%
   8344   866        cutoff        -1.53900e+13  -1.53900e+13   329280    0.00%
   9313  1034    infeasible        -1.53900e+13  -1.53900e+13   419340    0.00%
  12085  1459  -1.53900e+13    11  -1.53900e+13  -1.53900e+13   622084    0.00%
Elapsed time = 6.56 sec. (4127.78 ticks, tree = 3.72 MB, solutions = 13)

Performing restart 1

Repeating presolve.
Tried aggregator 2 times.
MIP Presolve eliminated 1626 rows and 3768 columns.
MIP Presolve added 10 rows and 0 columns.
MIP Presolve modified 2723 coefficients.
Aggregator did 429 substitutions.
Reduced MIP has 1521 rows, 3589 columns, and 12629 nonzeros.
Reduced MIP has 3589 binaries, 0 generals, 0 SOSs, and 0 indicators.
Presolve time = 0.06 sec. (56.58 ticks)
Tried aggregator 1 time.
MIP Presolve eliminated 13 rows and 8 columns.
Reduced MIP has 1508 rows, 3578 columns, and 12592 nonzeros.
Reduced MIP has 3578 binaries, 0 generals, 0 SOSs, and 0 indicators.
Presolve time = 0.02 sec. (17.71 ticks)
Represolve time = 0.14 sec. (101.96 ticks)
  12969     0  -1.53900e+13   142  -1.53900e+13      Cuts: 31   924793    0.00%
  12969     0  -1.53900e+13   214  -1.53900e+13      Cuts: 23   924920    0.00%
  12969     0  -1.53900e+13   244  -1.53900e+13      Cuts: 23   925033    0.00%
  12969     0  -1.53900e+13   156  -1.53900e+13      Cuts: 12   925196    0.00%
  12969     0  -1.53900e+13   258  -1.53900e+13      Cuts: 31   925347    0.00%
  12969     0  -1.53900e+13   160  -1.53900e+13      Cuts: 36   925413    0.00%
  12969     0  -1.53900e+13   175  -1.53900e+13      Cuts: 12   925452    0.00%
  12969     0  -1.53900e+13   176  -1.53900e+13       Cuts: 8   925560    0.00%
  12969     0  -1.53900e+13   144  -1.53900e+13      Cuts: 31   925662    0.00%
  12969     0  -1.53900e+13   204  -1.53900e+13      Cuts: 14   925718    0.00%
  12969     0  -1.53900e+13   263  -1.53900e+13      Cuts: 14   925757    0.00%

Repeating presolve.
Tried aggregator 2 times.
MIP Presolve eliminated 919 rows and 2025 columns.
MIP Presolve modified 69 coefficients.
Aggregator did 91 substitutions.
Reduced MIP has 497 rows, 1442 columns, and 4741 nonzeros.
Reduced MIP has 1442 binaries, 0 generals, 0 SOSs, and 0 indicators.
Presolve time = 0.01 sec. (11.92 ticks)
Tried aggregator 2 times.
MIP Presolve eliminated 9 rows and 24 columns.
MIP Presolve modified 47 coefficients.
Aggregator did 14 substitutions.
Reduced MIP has 471 rows, 1403 columns, and 4620 nonzeros.
Reduced MIP has 1403 binaries, 0 generals, 0 SOSs, and 0 indicators.
Presolve time = 0.01 sec. (7.28 ticks)
Tried aggregator 1 time.
Reduced MIP has 471 rows, 1403 columns, and 4620 nonzeros.
Reduced MIP has 1403 binaries, 0 generals, 0 SOSs, and 0 indicators.
Presolve time = 0.00 sec. (3.06 ticks)
Represolve time = 0.08 sec. (58.35 ticks)
  12969     0  -1.53900e+13   199  -1.53900e+13      Cuts: 37   927468    0.00%
  12969     0  -1.53900e+13   223  -1.53900e+13      Cuts: 50   927541    0.00%

Repeating presolve.
Tried aggregator 2 times.
MIP Presolve eliminated 53 rows and 505 columns.
MIP Presolve added 22 rows and 0 columns.
MIP Presolve modified 158 coefficients.
Aggregator did 46 substitutions.
Reduced MIP has 394 rows, 846 columns, and 2797 nonzeros.
Reduced MIP has 846 binaries, 0 generals, 0 SOSs, and 0 indicators.
Presolve time = 0.02 sec. (4.53 ticks)
Tried aggregator 1 time.
MIP Presolve eliminated 0 rows and 1 columns.
Reduced MIP has 394 rows, 845 columns, and 2793 nonzeros.
Reduced MIP has 845 binaries, 0 generals, 0 SOSs, and 0 indicators.
Presolve time = 0.00 sec. (1.95 ticks)
Represolve time = 0.05 sec. (21.27 ticks)
  12969     0  -1.53900e+13   103  -1.53900e+13      Cuts: 80   928510    0.00%
  12969     0  -1.53900e+13    87  -1.53900e+13       Cuts: 9   928528    0.00%
  12969     0        cutoff        -1.53900e+13                 928551    0.00%

Clique cuts applied:  32
Cover cuts applied:  258
Flow cuts applied:  1
Mixed integer rounding cuts applied:  13
Zero-half cuts applied:  47
Gomory fractional cuts applied:  16

Root node processing (before b&c):
  Real time             =    1.26 sec. (1014.09 ticks)
Parallel b&c, 40 threads:
  Real time             =    7.06 sec. (5569.79 ticks)
  Sync time (average)   =    0.28 sec.
  Wait time (average)   =    0.00 sec.
                          ------------
Total (root+branch&cut) =    8.32 sec. (6583.88 ticks)

Solution pool: 13 solutions saved.

MIP - Integer optimal solution:  Objective = -1.5389999589e+13
Solution time =    8.46 sec.  Iterations = 928551  Nodes = 12969
Deterministic time = 6583.91 ticks  (778.16 ticks/sec)

CPLEX> Solution 'p14' written to file 'ee.sol'.
CPLEX> 